 $rem
 JOBTYPE OPT
 EXCHANGE B3LYP
 SCF_ALGORITHM diis
 SCF_MAX_CYCLES 300
 BASIS 6-31G**
 GEOM_OPT_MAX_CYCLES 300
 scf_convergence 8
 SYM_IGNORE TRUE
 SYMMETRY   FALSE

molden_format true
 $end

$molecule
0 1
C         -1.83718       -0.41677        0.01345
C         -1.43500       -1.74596        0.02593
C          0.05069       -1.80271        0.23079
C          0.43663       -0.36579        0.40459
C         -0.68780        0.43071        0.25465
C         -3.16526       -0.04015       -0.19749
C         -4.11435       -1.04174       -0.43041
C         -3.72380       -2.38940       -0.46345
C         -2.38411       -2.74902       -0.24929
H         -3.46069        1.00057       -0.18955
H         -5.14938       -0.77524       -0.60064
H         -4.46034       -3.15632       -0.66571
H         -2.12567       -3.79103       -0.31361
C         -0.64238        1.82030        0.38787
C          1.64428        0.22958        0.81080
C          0.57858        2.41874        0.72121
C          1.71402        1.62453        0.94721
H          2.52026       -0.35559        1.03669
H          2.64519        2.09001        1.24323
H         -1.52994        2.42545        0.25972
H          0.63915        3.49298        0.83781
C          0.85908       -2.91472        0.31697
C          0.34684       -4.29088        0.75345
C          2.34102       -3.03728        0.12501
C          1.62817       -5.11474        1.06070
C          2.74701       -4.26291        0.61467
H          1.60134       -6.08297        0.51569
H          1.81148       -5.32420        2.13040
C          4.08238       -4.65945        0.64264
C          5.05377       -3.82212        0.10413
C          3.30364       -2.23805       -0.57167
C          4.67635       -2.63258       -0.53652
H          4.36373       -5.61655        1.06357
H          6.09015       -4.13837        0.12334
C          5.65540       -1.85946       -1.18089
C          2.96804       -1.11815       -1.36098
C          3.95176       -0.36624       -2.00700
C          5.29284       -0.72440       -1.90226
H          1.94762       -0.81780       -1.51147
H          3.66995        0.49557       -2.59835
H          6.69971       -2.14724       -1.14724
H          6.05025       -0.13879       -2.40720
H         -0.18733       -4.74042       -0.10866
C         -0.56721       -4.25870        2.04068
C         -1.04966       -5.66806        2.41783
H         -1.58636       -6.12638        1.56004
H         -1.75379       -5.61520        3.27568
H         -0.20651       -6.32927        2.70507
C          0.07358       -3.55745        3.25825
H          0.97058       -4.07746        3.64400
H         -0.66002       -3.51074        4.09140
H          0.35366       -2.51432        3.00312
H         -1.47817       -3.67973        1.84087
$end
