 $rem
 JOBTYPE OPT
 EXCHANGE B3LYP
 SCF_ALGORITHM diis
 SCF_MAX_CYCLES 300
 BASIS 6-31G**
 GEOM_OPT_MAX_CYCLES 300
 scf_convergence 8
 SYM_IGNORE TRUE
 SYMMETRY   FALSE

molden_format true
 $end

$molecule
0 1
C       -1.4869883645     -0.0789919648     -0.2963109066                 
C       -1.0052986305     -1.3645978839     -0.1529720763                 
C        0.4319230160     -1.4151514926      0.2250560036                 
C        0.7083974112     -0.1055210958      0.3098786671                 
C       -0.3976424764      0.7806955935     -0.0010049659                 
C       -2.8018876934      0.2083408453     -0.6601469103                 
C       -3.6677867871     -0.8665636764     -0.8961268995                 
C       -3.2039058278     -2.1873086420     -0.7681943834                 
C       -1.8720922432     -2.4427997632     -0.3998664052                 
H       -3.1466951791      1.2291058824     -0.7600280685                 
H       -4.6948591169     -0.6799241886     -1.1815785430                 
H       -3.8767822382     -3.0134719784     -0.9582690571                 
H       -1.5454079188     -3.4649149216     -0.3215445192                 
C       -0.3181545983      2.1162868010      0.0251958277                 
C        1.9974446748      0.5078800907      0.7885464793                 
C        0.9677549546      2.7543422228      0.4096166147                 
C        2.0411814725      2.0194885724      0.7690539100                 
H        2.8784451421     -0.0930092260      1.0936540918                 
H        2.9604045011      2.5202512204      1.0548524550                 
H       -1.1784423862      2.7303555393     -0.2199842837                 
H        1.0367495915      3.8373625102      0.4136497460                 
C        1.1927789029     -2.4878799752      0.4261274411                 
C        0.7859988936     -3.6878482768      1.2511134216                 
C        2.5853392629     -2.7016388841     -0.0385233488                 
C        2.1194816037     -4.3777707294      1.6042247780                 
C        3.0956090348     -3.7827311290      0.6536353316                 
H        2.0152683641     -5.4809088469      1.5187423871                 
H        2.4917615888     -4.1111684879      2.6182196195                 
C        4.4090548003     -4.2052494377      0.4875693059                 
C        5.2154305397     -3.5533257282     -0.4428642709                 
C        3.3807082349     -2.0180672285     -1.0075777273                 
C        4.7176877143     -2.4851757361     -1.2054222877                 
H        4.7967236132     -5.0395129938      1.0582717087                 
H        6.2300221504     -3.8994802500     -0.5964634199                 
H        0.2114565302     -4.3586690216      0.5808068408                 
C       -0.0162707031     -3.3697793449      2.5191273108                 
H        0.5584679521     -2.6895447073      3.1836495367                 
H       -0.2402661176     -4.3087102927      3.0683723204                 
H       -0.9788931152     -2.8825834784      2.2635627239                 
O        5.5393098615     -1.9727217336     -2.1489669669                 
H        5.2735643472     -1.3177164969     -2.8061982985                 
C        2.8192178408     -0.9154565950     -1.8508045037                 
C        3.4285871050      0.3683707643     -1.9894832187                 
C        1.6237989605     -1.1749266129     -2.5479046506                 
C        1.0408143014     -0.2111208576     -3.3667074496                 
C        1.6340080010      1.0384177385     -3.5117577581                 
C        2.8191342101      1.3412186512     -2.8303423453                 
C        4.6008417627      0.7322338917     -1.2880088619                 
C        5.1596531984      2.0028475699     -1.4386003842                 
C        4.5623889607      2.9385287763     -2.2804732361                 
C        3.3959147765      2.6133668526     -2.9713954379                 
H        1.1408456021     -2.1411871951     -2.4660584635                 
H        0.1227647778     -0.4364169855     -3.8939188677                 
H        1.1606875648      1.7730152604     -4.1525337766                 
H        5.0918123433      0.0492034798     -0.6107296358                 
H        6.0587029717      2.2642106012     -0.8954335792                 
H        4.9999211575      3.9223082979     -2.3910551020                 
H        2.9402790805      3.3595219545     -3.6116308265                 
$end
