 $rem
 JOBTYPE OPT
 EXCHANGE B3LYP
 SCF_ALGORITHM diis
 SCF_MAX_CYCLES 300
 BASIS 6-31G**
 GEOM_OPT_MAX_CYCLES 300
 scf_convergence 8
 SYM_IGNORE TRUE
 SYMMETRY   FALSE

molden_format true
 $end

$molecule
0 1
C         -1.90182       -0.37469       -0.17825
C         -1.52483       -1.71131       -0.13649
C         -0.05761       -1.79365        0.17053
C          0.33698       -0.36344        0.37320
C         -0.75860        0.45293        0.14484
C         -3.20510        0.02500       -0.48031
C         -4.15332       -0.96027       -0.77611
C         -3.78522       -2.31448       -0.77865
C         -2.46985       -2.69724       -0.47213
H         -3.48190        1.07079       -0.49335
H         -5.16947       -0.67632       -1.01714
H         -4.52005       -3.06902       -1.02816
H         -2.23296       -3.74146       -0.51457
C         -0.69834        1.84108        0.28683
C          1.52106        0.20766        0.87366
C          0.50523        2.41622        0.71258
C          1.60604        1.60068        1.02034
H          2.36628       -0.39781        1.15996
H          2.52072        2.04802        1.38721
H         -1.56329        2.46251        0.09686
H          0.57625        3.48883        0.83794
C          0.73115       -2.91411        0.30793
C          0.20208       -4.27324        0.83483
C          2.22176       -3.03818        0.13482
C          1.46048       -5.18494        0.84634
C          2.60203       -4.29818        0.55371
H          1.41413       -5.92450        0.01722
H          1.65240       -5.74850        1.77410
C          3.92650       -4.72938        0.56634
C          4.92568       -3.87926        0.11154
C          3.21837       -2.22592       -0.50828
C          4.58430       -2.64796       -0.46326
H          4.17835       -5.72423        0.91185
H          5.95420       -4.22058        0.12647
C          5.59487       -1.86531       -1.04490
C          2.92954       -1.06830       -1.26231
C          3.94343       -0.30715       -1.84789
C          5.27398       -0.69206       -1.72139
H          1.92390       -0.74268       -1.44012
H          3.69272        0.58278       -2.41103
H          6.63215       -2.17647       -1.00121
H          6.05517       -0.09963       -2.18008
H         -0.54244       -4.73203        0.16398
C         -0.38622       -4.21083        2.33666
C         -0.84579       -5.62742        2.78769
H         -1.62712       -6.01492        2.09864
H         -1.27810       -5.59550        3.81177
H         -0.03728       -6.37874        2.83166
C          0.66781       -3.66587        3.33953
C         -1.63739       -3.31937        2.50241
H          1.58198       -4.28772        3.39099
H          0.25165       -3.63328        4.36992
H          0.97193       -2.63351        3.06361
H         -2.47198       -3.67634        1.87026
H         -1.42019       -2.25125        2.32680
H         -2.01011       -3.36024        3.54963
$end
