 $rem
 JOBTYPE OPT
 EXCHANGE B3LYP
 SCF_ALGORITHM diis
 SCF_MAX_CYCLES 300
 BASIS 6-31G**
 GEOM_OPT_MAX_CYCLES 300
 scf_convergence 8
 SYM_IGNORE TRUE
 SYMMETRY   FALSE

molden_format true
 $end

$molecule
0 1
C         -1.66153       -0.19365        0.07523
C         -1.29521       -1.53051        0.10863
C          0.18947       -1.63223        0.23386
C          0.64028       -0.20209        0.27731
C         -0.47114        0.62417        0.18145
C         -2.99114        0.21204       -0.06037
C         -3.97713       -0.77233       -0.19935
C         -3.61824       -2.12953       -0.22737
C         -2.27502       -2.51213       -0.08966
H         -3.25942        1.26004       -0.07195
H         -5.01442       -0.48536       -0.31298
H         -4.38032       -2.88424       -0.37273
H         -2.02559       -3.54987       -0.17481
C         -0.37396        2.01661        0.22238
C          1.89910        0.37732        0.51845
C          0.88929        2.59203        0.39989
C          2.01914        1.77499        0.56056
H          2.78082       -0.21159        0.69406
H          2.98766        2.22633        0.73307
H         -1.25200        2.64270        0.13582
H          0.99102        3.66868        0.44162
C          0.96006       -2.76387        0.35904
C          0.49638       -4.11958        0.89365
C          2.43194       -2.91166        0.17613
C          1.74974       -4.62688        1.65397
C          2.86807       -3.96283        0.95432
H          1.78290       -5.73729        1.61031
H          1.81922       -4.29135        2.71235
C          4.21446       -4.30372        1.06080
C          5.15270       -3.60307        0.30116
C          3.35449       -2.24784       -0.67834
C          4.73437       -2.59618       -0.58813
H          4.52918       -5.11068        1.71012
H          6.19860       -3.87641        0.37510
C          5.67651       -1.95037       -1.40391
C          2.96379       -1.30020       -1.64599
C          3.91396       -0.67333       -2.45529
C          5.26602       -0.98862       -2.32726
H          1.92745       -1.04171       -1.79463
H          3.59898        0.05825       -3.18824
H          6.72888       -2.20019       -1.33794
H          5.99647       -0.49940       -2.95863
H          0.35485       -4.78958        0.01487
C         -0.65771       -4.16897        1.88291
C         -1.68455       -5.11970        1.72937
C         -0.70244       -3.29192        2.98482
C         -2.74005       -5.17657        2.64425
C         -1.76028       -3.35282        3.89609
H          0.07907       -2.55719        3.13355
C         -2.77909       -4.29269        3.72502
H         -1.78943       -2.67119        4.73626
H         -3.59708       -4.33856        4.43221
H         -1.66780       -5.81492        0.89924
H         -3.52769       -5.90761        2.51567
$end
